
<<< setup


<<< generate

CPXPARAM_Simplex_Tolerances_Optimality           0.001
CPXPARAM_Simplex_Tolerances_Feasibility          0.001
CPXPARAM_TimeLimit                               3600
CPXPARAM_Threads                                 8
CPXPARAM_MIP_Tolerances_AbsMIPGap                0.001
CPXPARAM_MIP_Tolerances_MIPGap                   0.001
CPXPARAM_MIP_Tolerances_Integrality              0.001
CPXPARAM_MIP_Display                             4
CPXPARAM_MIP_PolishAfter_Solutions               1
Tried aggregator 1 time.
MIQCP Presolve eliminated 2 rows and 2 columns.
Reduced MIQCP has 71 rows, 263 columns, and 2349 nonzeros.
Reduced MIQCP has 0 binaries, 32 generals, 0 SOSs, and 0 indicators.
Reduced MIQCP has 4 quadratic constraints.
Presolve time = 0.00 sec. (1.19 ticks)
MIP emphasis: balance optimality and feasibility.
MIP search method: dynamic search.
Parallel mode: deterministic, using up to 8 threads.
Dual infeasible due to empty column 'x(2)'.
Presolve time = 0.00 sec. (0.10 ticks)
Tried aggregator 1 time.
LP Presolve eliminated 67 rows and 67 columns.
Aggregator did 2 substitutions.
Reduced LP has 2 rows, 194 columns, and 130 nonzeros.
Presolve time = 0.00 sec. (0.14 ticks)
Initializing dual steep norms . . .

Iteration log . . .
Iteration:     1    Scaled infeas =             0.000000
Root relaxation solution time = 0.00 sec. (0.42 ticks)

        Nodes                                         Cuts/
   Node  Left     Objective  IInf  Best Integer    Best Bound    ItCnt     Gap

      0     0     -320.0165    32                   -320.0165       17         
*     0+    0                          -27.3604     -320.0165              --- 
Found incumbent of value -27.360442 after 0.13 sec. (31.92 ticks)

Starting condition for polishing reached (PolishAfterIntSol).
Starting solution polishing.

      0     2    -7073.2683    31      -27.3604     -320.0165       33     --- 
Elapsed time = 0.14 sec. (43.37 ticks, tree = 0.01 MB, solutions = 1)
*     1+    1                          -39.8478     -320.0165           703.10%
Found incumbent of value -39.847793 after 0.19 sec. (126.22 ticks)
*     1+    1                         -758.4467     -320.0165           -57.81%
Found incumbent of value -758.446658 after 0.30 sec. (147.87 ticks)

Root node processing (before b&c):
  Real time             =    0.13 sec. (31.94 ticks)
Parallel b&c, 8 threads:
  Real time             =    0.19 sec. (425.02 ticks)
  Sync time (average)   =    0.04 sec.
  Wait time (average)   =    0.00 sec.
                          ------------
Total (root+branch&cut) =    0.31 sec. (456.96 ticks)

<<< solve


OBJECTIVE: -758.4467
X*: [10049 10004 9996 10004 9996 10004 9996 10004 9996 10004 9996 10004 9996 10004
     9996 10004 9996 10004 9996 10004 9996 10004 9996 10004 9996 10004 9996
     10004 9996 10004 9996 10004] Z*: [10014 10004 9996 10004 9996 10004 9996 10004 9996 10004 9996 10004 9996 10004
     9996 10004 9996 10004 9996 10004 9996 10004 9996 10004 9996 10004 9996
     10004 9996 10004 9996 10004]
f*:210.587579201

<<< post process


<<< done

